65712
[0, 26, 30, 24, 10, 44, 41, 51, 1, 13, 8, 11, 17, 3, 29, 14, 38, 15, 9, 21, 28, 20, 22, 16, 47, 18, 48, 25, 54, 27, 5, 2, 42, 12, 40, 31, 43, 7, 37, 50, 36, 4, 34, 23, 6, 19, 49, 39, 52, 33, 53, 46, 45, 35, 32, 0]
